40
1 0 4
2 0 1
3 1 3
3 2 1
4 0 4
4 1 4
5 0 3
5 2 3
5 3 4
6 0 3
6 1 2
6 3 3
7 0 5
7 1 2
7 3 1
7 4 4
7 6 3
8 0 2
8 2 4
8 3 2
8 6 2
8 7 5
9 0 2
9 2 3
9 3 5
9 4 4
9 5 5
9 6 2
9 7 2
9 8 2
10 0 5
10 2 3
10 7 2
10 8 1
11 6 2
11 10 3
12 3 3
12 5 1
12 6 2
12 7 4
12 11 5
13 1 3
13 4 4
13 7 4
13 9 3
14 0 4
14 1 4
14 3 3
14 4 1
14 6 2
14 10 4
14 12 3
15 2 3
15 9 3
15 11 5
15 12 4
15 14 4
16 1 3
16 2 4
16 3 1
16 5 4
16 6 4
16 8 5
16 9 5
16 10 2
16 11 5
16 12 5
16 14 5
17 1 4
17 2 4
17 3 4
17 5 1
17 7 3
17 8 1
17 9 4
17 11 5
17 12 3
17 13 3
17 15 2
18 0 5
18 1 3
18 2 2
18 8 3
18 9 5
18 10 3
18 14 1
18 17 3
19 0 3
19 1 3
19 2 3
19 5 4
19 6 4
19 7 4
19 13 1
19 16 3
20 1 2
20 4 1
20 5 3
20 6 1
20 7 3
20 8 3
20 9 2
20 10 5
20 11 5
20 12 2
20 13 2
20 15 2
20 19 2
21 1 1
21 2 4
21 7 3
21 9 1
21 10 4
21 11 3
21 12 2
21 14 3
21 15 4
21 16 3
21 18 2
21 20 3
22 4 2
22 5 4
22 6 1
22 7 2
22 8 5
22 9 3
22 10 4
22 11 2
22 14 3
22 15 4
22 16 3
22 18 3
22 19 2
22 21 4
23 0 4
23 1 4
23 2 5
23 3 4
23 5 2
23 10 3
23 13 5
23 14 1
23 16 4
23 19 5
23 20 2
23 21 2
23 22 3
24 2 4
24 6 1
24 7 4
24 9 5
24 10 4
24 13 3
24 14 1
24 16 2
24 21 2
24 22 3
25 0 1
25 2 2
25 3 2
25 4 3
25 8 3
25 10 1
25 12 1
25 14 3
25 15 1
25 18 1
25 24 4
26 3 3
26 5 1
26 6 5
26 8 3
26 9 4
26 10 1
26 11 3
26 12 2
26 15 3
26 16 4
26 18 1
26 19 4
26 23 2
26 25 3
27 2 3
27 8 3
27 10 1
27 12 5
27 14 3
27 16 4
27 19 4
27 21 3
27 24 3
28 0 1
28 1 5
28 9 5
28 10 3
28 11 5
28 12 3
28 13 2
28 14 1
28 16 3
28 17 3
28 25 1
29 0 2
29 3 1
29 6 5
29 7 4
29 9 4
29 10 2
29 11 4
29 12 3
29 13 2
29 15 4
29 18 3
29 19 2
29 21 4
29 23 5
29 25 5
29 26 4
29 28 4
30 1 1
30 2 5
30 4 3
30 5 4
30 6 5
30 7 4
30 12 3
30 14 3
30 17 2
30 19 1
30 20 4
30 23 4
30 24 4
30 26 4
30 27 5
31 0 1
31 4 3
31 6 4
31 8 4
31 13 2
31 16 3
31 19 3
31 21 2
31 22 2
31 24 4
31 26 3
31 27 2
31 28 3
32 0 5
32 2 2
32 3 1
32 10 4
32 11 3
32 12 1
32 13 1
32 15 3
32 17 5
32 18 1
32 20 3
32 22 1
32 24 3
32 28 2
32 31 2
33 0 2
33 1 2
33 2 3
33 8 1
33 9 4
33 10 5
33 11 2
33 13 3
33 14 5
33 17 4
33 19 4
33 23 4
33 25 5
33 27 5
33 30 5
33 32 4
34 0 5
34 2 2
34 3 4
34 5 1
34 6 1
34 7 1
34 8 1
34 9 5
34 10 1
34 12 3
34 14 3
34 16 4
34 18 5
34 19 3
34 20 3
34 22 5
34 23 4
34 25 4
34 26 5
34 27 3
34 28 4
34 31 4
35 1 5
35 2 3
35 4 5
35 6 2
35 8 1
35 10 4
35 11 3
35 12 3
35 13 5
35 16 4
35 17 5
35 18 4
35 20 5
35 22 2
35 24 5
35 26 1
35 28 3
35 30 3
35 31 5
35 32 4
35 33 1
36 2 1
36 4 1
36 9 1
36 10 2
36 13 1
36 16 1
36 17 2
36 21 4
36 24 1
36 31 1
36 34 1
37 0 5
37 5 2
37 7 1
37 12 3
37 13 4
37 16 4
37 17 3
37 24 4
37 27 3
37 28 5
37 29 1
37 30 1
37 31 2
37 32 1
37 36 3
38 2 2
38 3 3
38 4 1
38 5 1
38 11 4
38 14 4
38 15 1
38 16 3
38 18 4
38 19 3
38 23 1
38 25 5
38 26 5
38 27 2
38 29 2
38 30 1
38 31 3
38 34 2
38 35 5
38 36 3
38 37 3
39 0 1
39 1 1
39 2 3
39 6 2
39 9 5
39 10 3
39 12 5
39 15 4
39 19 3
39 22 4
39 24 4
39 26 1
39 27 4
39 28 2
39 30 4
39 31 5
39 32 3
39 33 2
39 36 2
39 37 4
